
  22    0


   0  13 2 3 5 6 7 8 9 16 17 18 19 20 21 
   6   4 14 13 12 10 
   6   1 4 
   9   3 12 11 10 
   7   3 15 14 11 
   7   2 13 10 
   5   1 11 
   4   1 10 
   5   1 10 
   7   1 22
  10   1 22
   7   1 22
   7   1 22
   7   1 22
   5   1 22
   3   1 22
   3   1 22
   1   1 22
   3   1 22
   3   1 22
   9   1 22
   0   0 
